experiments/sat_smt/run/sat-l/results/lauren.res
solved=true
solvingTime=680.659423828125
nActions=42