experiments/sat_smt/run/sat-l/results/lauren.out
Timesteps: 1
s UNSATISFIABLE
real 0.09
user 0.00
sys 0.00
Timesteps: 2
s UNSATISFIABLE
real 0.09
user 0.01
sys 0.00
Timesteps: 3
s UNSATISFIABLE
real 0.06
user 0.01
sys 0.00
Timesteps: 4
s UNSATISFIABLE
real 0.10
user 0.04
sys 0.00
Timesteps: 5
s UNSATISFIABLE
real 0.12
user 0.06
sys 0.00
Timesteps: 6
s UNSATISFIABLE
real 0.16
user 0.12
sys 0.00
Timesteps: 7
s UNSATISFIABLE
real 0.48
user 0.43
sys 0.00
Timesteps: 8
s UNSATISFIABLE
real 0.80
user 0.72
sys 0.01
Timesteps: 9
s UNSATISFIABLE
real 0.88
user 0.81
sys 0.01
Timesteps: 10
s UNSATISFIABLE
real 1.67
user 1.57
sys 0.00
Timesteps: 11
s UNSATISFIABLE
real 1.80
user 1.72
sys 0.01
Timesteps: 12
s UNSATISFIABLE
real 3.40
user 3.30
sys 0.01
Timesteps: 13
s UNSATISFIABLE
real 3.39
user 3.28
sys 0.01
Timesteps: 14
s UNSATISFIABLE
real 3.03
user 2.91
sys 0.01
Timesteps: 15
s UNSATISFIABLE
real 5.13
user 5.00
sys 0.01
Timesteps: 16
s UNSATISFIABLE
real 5.38
user 5.23
sys 0.02
Timesteps: 17
s UNSATISFIABLE
real 5.83
user 5.68
sys 0.02
Timesteps: 18
s UNSATISFIABLE
real 5.62
user 5.47
sys 0.02
Timesteps: 19
s UNSATISFIABLE
real 6.67
user 6.49
sys 0.02
Timesteps: 20
s UNSATISFIABLE
real 7.59
user 7.36
sys 0.03
Timesteps: 21
s UNSATISFIABLE
real 7.98
user 7.79
sys 0.02
Timesteps: 22
s UNSATISFIABLE
real 8.36
user 8.17
sys 0.02
Timesteps: 23
s UNSATISFIABLE
real 8.99
user 8.78
sys 0.03
Timesteps: 24
s UNSATISFIABLE
real 10.21
user 9.97
sys 0.04
Timesteps: 25
s UNSATISFIABLE
real 9.90
user 9.68
sys 0.03
Timesteps: 26
s UNSATISFIABLE
real 14.05
user 13.61
sys 0.06
Timesteps: 27
s UNSATISFIABLE
real 16.35
user 16.08
sys 0.05
Timesteps: 28
s UNSATISFIABLE
real 16.94
user 16.67
sys 0.04
Timesteps: 29
s UNSATISFIABLE
real 18.27
user 17.98
sys 0.04
Timesteps: 30
s UNSATISFIABLE
real 20.66
user 20.33
sys 0.06
Timesteps: 31
s UNSATISFIABLE
real 20.79
user 20.45
sys 0.07
Timesteps: 32
s UNSATISFIABLE
real 21.47
user 21.14
sys 0.06
Timesteps: 33
s UNSATISFIABLE
real 20.48
user 20.14
sys 0.07
Timesteps: 34
s UNSATISFIABLE
real 28.67
user 28.29
sys 0.06
Timesteps: 35
s UNSATISFIABLE
real 33.32
user 32.85
sys 0.07
Timesteps: 36
s UNSATISFIABLE
real 29.82
user 29.39
sys 0.08
Timesteps: 37
s UNSATISFIABLE
real 65.66
user 64.64
sys 0.12
Timesteps: 38
s UNSATISFIABLE
real 61.95
user 60.89
sys 0.12
Timesteps: 39
s UNSATISFIABLE
real 60.87
user 59.78
sys 0.12
Timesteps: 40
s UNSATISFIABLE
real 48.57
user 47.65
sys 0.10
Timesteps: 41
s UNSATISFIABLE
real 52.24
user 51.68
sys 0.12
Timesteps: 42
s SATISFIABLE
real 56.48
user 55.90
sys 0.11
